 Code  1132
 Dimension, Fixed Cost
   100        3000
 Facility, Client, Transportation Cost
     1        2           1
     1       23           1
     1       30           4
     1       39           3
     1       48           1
     1       59           2
     1       67           1
     2       22           2
     2       24           1
     2       25           4
     2       42           3
     2       44           1
     2       65           4
     2       80           3
     2       89           4
     2       94           2
     3       23           4
     3       39           3
     3       43           3
     3       45           2
     3       46           4
     3       50           1
     3       60           4
     3       74           0
     3       78           4
     3       87           3
     3       89           1
     3       96           0
     3       97           1
     4        1           2
     4       37           0
     4       40           0
     4       42           4
     4       44           3
     4       53           3
     4       57           1
     4       61           3
     4       88           1
     4       91           1
     4       94           2
     5       25           2
     5       28           3
     5       36           0
     5       43           3
     5       44           4
     5       51           0
     5       57           1
     5       58           1
     5       66           4
     5       83           4
     6        8           2
     6       14           4
     6       15           1
     6       21           0
     6       28           0
     6       30           2
     6       52           1
     6       65           0
     6       87           4
     6       90           4
     6       92           2
     7        4           1
     7       10           4
     7       18           3
     7       20           2
     7       21           3
     7       27           2
     7       45           4
     7       60           3
     7       64           4
     7       85           0
     8        5           4
     8       51           4
     8       60           0
     8       68           4
     8       81           4
     8       84           4
     8       87           4
     8       95           0
     9        6           1
     9       11           0
     9       16           1
     9       17           0
     9       21           3
     9       24           4
     9       31           1
     9       32           2
     9       38           3
     9       45           1
     9       62           0
     9       65           4
     9       67           2
     9       68           2
     9       77           2
     9       88           0
    10        3           4
    10       11           4
    10       25           4
    10       62           2
    10       66           0
    10       67           1
    10       69           0
    10       71           2
    10       72           1
    10       81           4
    10       93           1
    11        7           0
    11        8           0
    11       12           3
    11       22           4
    11       37           3
    11       75           3
    11       91           3
    11       94           3
    11       95           1
    11       97           1
    12        4           2
    12       33           3
    12       54           2
    12       65           2
    12       84           1
    12       98           1
    13        7           0
    13       24           1
    13       39           1
    13       43           0
    13       44           2
    13       46           3
    13       49           4
    13       52           3
    13       54           3
    13       75           2
    13       98           2
    14        8           2
    14       15           2
    14       19           3
    14       37           3
    14       47           0
    14       68           1
    14       70           1
    14       96           4
    15       13           1
    15       32           2
    15       41           3
    15       50           2
    15       59           0
    15       96           4
    15      100           3
    16        8           1
    16       20           1
    16       26           0
    16       28           3
    16       53           4
    16       54           3
    16       55           4
    16       73           2
    16       76           0
    16       85           1
    16       98           4
    16      100           3
    17        5           2
    17       12           2
    17       19           2
    17       32           2
    17       55           1
    17       57           1
    17       71           3
    17       88           2
    17       90           3
    17       92           2
    18       10           1
    18       16           3
    18       34           0
    18       42           4
    18       51           0
    18       52           3
    18       88           0
    19       26           0
    19       29           1
    19       31           3
    19       35           1
    19       40           3
    19       45           3
    19       46           0
    19       51           0
    20        6           3
    20       14           0
    20       15           1
    20       53           1
    20       54           1
    20       55           3
    20       69           1
    20       70           1
    20       71           1
    20       76           3
    20       84           0
    20       85           1
    21       13           2
    21       28           4
    21       30           2
    21       31           0
    22       25           3
    22       31           0
    22       34           0
    22       51           1
    22       72           1
    22       73           0
    22       77           2
    22       82           2
    22       83           0
    22       84           1
    22       92           0
    23        2           1
    23        4           0
    23       16           4
    23       50           1
    23       63           3
    23       72           2
    23       74           0
    23       79           4
    23       82           4
    23       86           2
    23       88           3
    23       99           4
    24       14           2
    24       19           0
    24       56           2
    24       71           1
    24       73           1
    24       83           3
    24       90           4
    24       95           2
    25        1           3
    25       10           3
    25       18           4
    25       40           3
    25       53           1
    25       59           1
    25       82           0
    26        4           0
    26       29           0
    26       30           0
    26       50           2
    26       55           2
    26       61           1
    26       63           0
    26       70           4
    26       75           3
    26       83           3
    26       84           0
    27        6           2
    27       15           0
    27       18           0
    27       45           2
    27       47           2
    27       48           2
    27       56           0
    27       67           2
    27       74           0
    27       87           1
    28        4           3
    28        5           3
    28       21           4
    28       28           0
    28       30           2
    28       33           4
    28       37           2
    28       46           4
    28       55           4
    28      100           4
    29        1           2
    29        5           1
    29       21           1
    29       27           2
    29       30           4
    29       31           1
    29       33           2
    29       47           2
    29       49           2
    29       61           2
    29       64           4
    29       76           2
    29       81           2
    30        1           1
    30        3           4
    30       10           4
    30       26           2
    30       27           3
    30       41           1
    30       50           3
    30       68           1
    30       87           1
    30       95           4
    30       96           3
    31        2           4
    31       20           3
    31       21           2
    31       36           2
    31       38           3
    31       39           4
    31       55           4
    31       58           2
    31       76           0
    31       94           4
    32        7           2
    32       32           3
    32       37           3
    32       42           2
    32       59           1
    32       63           3
    32       65           0
    32       79           4
    32       86           3
    32       89           0
    33        1           2
    33       11           4
    33       17           4
    33       19           1
    33       64           4
    33       86           2
    33       95           1
    33       98           2
    34       31           4
    34       56           3
    34       78           0
    34       86           2
    34       87           2
    34       88           1
    35        1           4
    35       11           0
    35       27           4
    35       34           1
    35       67           2
    35       78           1
    35       85           4
    35       97           2
    35       98           0
    36        7           4
    36        9           1
    36       10           1
    36       26           0
    36       41           4
    36       56           4
    36       77           0
    37        3           3
    37       41           0
    37       48           3
    37       55           3
    37       58           4
    37       59           3
    37       62           3
    37       78           2
    37       79           1
    38        3           1
    38        6           0
    38        9           0
    38       34           0
    38       47           2
    38       49           4
    38       50           1
    38       51           0
    38       69           1
    38       70           1
    38       79           1
    39       10           2
    39       33           1
    39       38           0
    39       58           1
    39       59           0
    39       71           4
    39       99           2
    40        2           1
    40        4           4
    40       16           0
    40       20           0
    40       27           1
    40       36           3
    40       40           3
    40       42           1
    40       68           1
    40       75           3
    40       82           1
    40       85           1
    41        2           4
    41       20           1
    41       35           4
    41       41           0
    41       55           3
    41       57           2
    41       58           4
    41       60           4
    41       70           0
    41       71           1
    41       74           4
    41       78           4
    41       96           2
    41       97           2
    41      100           3
    42        2           2
    42       12           0
    42       16           2
    42       25           2
    42       30           2
    42       36           2
    42       39           2
    42       44           4
    42       52           0
    42       81           4
    43        3           1
    43        6           4
    43       14           1
    43       20           1
    43       22           4
    43       52           0
    43       60           3
    43       81           0
    43       85           4
    43       88           2
    43       90           2
    43       91           0
    44       12           4
    44       18           3
    44       31           0
    44       35           1
    44       38           2
    44       43           2
    44       61           4
    44       80           0
    44       88           0
    44       90           4
    45        8           1
    45       32           0
    45       36           1
    45       43           1
    45       46           3
    45       50           3
    45       76           1
    45       86           0
    45       94           4
    46       23           3
    46       26           4
    46       39           4
    46       50           2
    46       54           2
    46       57           2
    46       63           1
    46       64           4
    46       83           0
    46       86           1
    46       99           0
    46      100           0
    47       29           0
    47       32           0
    47       35           2
    47       92           1
    47       99           0
    47      100           0
    48        6           4
    48       31           3
    48       44           3
    48       51           2
    48       52           4
    48       69           4
    48       72           2
    48       79           2
    48       91           2
    48       99           2
    49       27           3
    49       53           2
    49       74           4
    49       75           4
    49       77           3
    49      100           4
    50       13           3
    50       14           4
    50       19           1
    50       34           4
    50       56           4
    50       62           2
    50       75           0
    50       81           0
    50       89           2
    50       91           3
    50       95           1
    50       96           2
    51        9           0
    51       15           4
    51       17           1
    51       26           4
    51       49           4
    51       53           2
    51       60           1
    51       63           2
    51       73           3
    51       77           0
    51       80           3
    51       98           3
    52        1           1
    52       42           4
    52       58           3
    52       65           4
    52       72           1
    52       82           1
    52       86           4
    52       93           0
    53       23           2
    53       44           4
    53       68           2
    53       91           2
    53       92           4
    53      100           3
    54        7           3
    54       12           2
    54       24           2
    54       25           2
    54       28           1
    54       35           1
    54       43           0
    54       58           4
    54       61           0
    54       62           4
    54       67           4
    54       69           4
    54       96           3
    55        5           3
    55       13           3
    55       21           0
    55       41           4
    55       75           2
    56        9           0
    56       25           0
    56       34           3
    56       40           0
    56       63           0
    56       64           4
    56       68           1
    57       13           4
    57       14           1
    57       23           4
    57       27           0
    57       29           0
    57       34           3
    57       48           0
    57       56           3
    57       62           3
    57       64           2
    57       65           0
    57       71           1
    57       78           1
    58        4           3
    58       15           1
    58       25           3
    58       36           4
    58       37           1
    58       42           3
    58       45           3
    58       51           0
    58       56           1
    58       69           4
    58       73           2
    58       74           4
    58       77           0
    58       82           4
    59       30           3
    59       38           2
    59       46           2
    59       48           2
    59       64           4
    59       72           2
    59       78           1
    59       94           0
    60        7           0
    60       14           4
    60       28           3
    60       42           1
    60       43           1
    60       49           1
    60       60           4
    60       92           1
    60       97           1
    61        6           1
    61       23           2
    61       29           1
    61       33           0
    61       35           2
    61       36           2
    61       52           0
    61       56           4
    61       76           0
    61       87           4
    62        2           0
    62       41           2
    62       46           0
    62       72           4
    62       90           0
    62       91           1
    63       18           1
    63       20           2
    63       25           3
    63       36           3
    63       37           3
    63       54           2
    63       77           0
    63       98           3
    63      100           4
    64        2           0
    64       11           4
    64       13           1
    64       21           3
    64       44           3
    64       55           1
    64       66           4
    64       70           1
    64       71           2
    64       81           3
    65        5           3
    65       15           3
    65       27           1
    65       49           3
    65       64           1
    65       75           3
    65       77           1
    65       79           1
    65       93           2
    65       95           2
    66        8           4
    66       11           3
    66       14           2
    66       16           2
    66       17           4
    66       26           0
    66       33           4
    66       48           3
    66       51           2
    66       53           2
    66       66           1
    66       83           2
    66       84           3
    66       87           3
    67        2           4
    67        6           0
    67       22           2
    67       47           3
    67       49           2
    67       54           0
    67       61           4
    67       66           1
    67       97           3
    67       99           2
    68       13           0
    68       36           4
    68       39           1
    68       46           3
    68       53           0
    68       57           0
    68       62           2
    68       81           0
    68       83           4
    68       96           0
    68       97           0
    69        6           4
    69        7           4
    69        9           3
    69       21           0
    69       29           2
    69       35           4
    69       40           0
    69       50           2
    69       56           0
    69       83           2
    69       87           0
    69       95           1
    70        3           2
    70       38           4
    70       40           3
    70       52           1
    70       60           4
    70       84           2
    71        8           1
    71       10           1
    71       17           2
    71       18           1
    71       32           2
    71       39           4
    71       53           2
    71       78           1
    71       79           2
    71       80           3
    71       81           3
    71       82           2
    71       92           1
    71       95           0
    72       22           1
    72       39           2
    72       57           0
    72       72           0
    72       96           1
    73       23           3
    73       24           1
    73       28           4
    73       32           2
    73       33           3
    73       50           0
    73       61           0
    73       66           1
    73       67           0
    73       70           2
    73       82           3
    73       83           0
    74        5           3
    74       12           3
    74       23           1
    74       24           3
    74       26           2
    74       32           1
    74       44           1
    74       48           4
    74       61           4
    74       67           2
    74       74           2
    74       84           0
    74       93           1
    75       11           4
    75       13           2
    75       18           3
    75       19           4
    75       22           4
    75       26           1
    75       27           2
    75       51           4
    75       52           0
    75       59           2
    75       62           0
    75       64           0
    75       70           1
    75       74           4
    75       75           1
    75       90           2
    75       91           2
    75       94           0
    76        2           1
    76        3           0
    76       76           3
    76       77           2
    76       79           1
    76       87           0
    76       98           3
    77        8           4
    77       10           1
    77       18           2
    77       34           4
    77       37           0
    77       40           1
    77       41           1
    77       45           1
    77       66           4
    77       73           3
    77       80           4
    77       84           0
    77       93           2
    78        1           2
    78       17           0
    78       20           1
    78       23           0
    78       28           4
    78       45           1
    78       54           4
    78       62           1
    78       70           0
    78       83           1
    78       99           3
    79       15           2
    79       16           0
    79       26           0
    79       27           3
    79       46           3
    79       48           2
    79       61           4
    79       67           3
    79       76           0
    79       80           3
    79       89           1
    79       92           4
    80        8           3
    80        9           0
    80       16           2
    80       17           2
    80       24           4
    80       38           4
    80       57           3
    80       58           3
    80       64           2
    80       69           3
    80       85           4
    80       86           1
    80       89           1
    80       93           3
    80       98           2
    81        3           3
    81        4           2
    81        9           0
    81       15           1
    81       49           2
    81       52           0
    81       91           3
    82       14           4
    82       16           0
    82       17           0
    82       30           1
    82       38           4
    82       43           4
    82       44           3
    82       46           1
    82       49           0
    82       74           0
    82       75           4
    83        7           0
    83       19           1
    83       22           0
    83       24           4
    83       30           4
    83       32           3
    83       35           1
    83       48           0
    83       55           0
    83       57           0
    83       63           1
    83       72           4
    83       76           3
    83       84           3
    83       94           3
    84        9           1
    84       25           2
    84       31           4
    85        7           0
    85       13           2
    85       19           2
    85       34           0
    85       42           4
    85       49           0
    85       59           3
    85       61           0
    85       63           1
    85       76           2
    85       80           0
    85       88           4
    86        9           3
    86       18           1
    86       37           1
    86       47           0
    86       68           0
    86       80           2
    86       98           0
    87        5           4
    87       17           0
    87       18           2
    87       19           3
    87       20           4
    87       29           2
    87       35           0
    87       38           4
    87       42           0
    87       43           2
    87       47           4
    87       80           3
    87       91           0
    88        4           2
    88        8           2
    88        9           0
    88       10           2
    88       22           3
    88       31           3
    88       33           2
    88       41           0
    88       53           4
    88       54           4
    88       60           0
    88       73           4
    88       74           1
    88       78           2
    89        3           2
    89        5           0
    89        6           0
    89       56           4
    89       69           1
    89       71           3
    89       89           2
    89       95           0
    90       11           3
    90       39           2
    90       40           3
    90       43           2
    90       45           2
    90       48           2
    90       69           3
    90       71           1
    90       90           4
    90       94           0
    91       20           0
    91       33           3
    91       37           4
    91       65           0
    91       67           3
    91       89           3
    91      100           1
    92        3           3
    92       10           0
    92       22           4
    92       38           2
    92       41           3
    92       47           1
    92       59           0
    92       73           1
    92       93           3
    92       94           0
    92       96           2
    92       97           0
    93        7           3
    93       14           4
    93       15           4
    93       29           0
    93       36           4
    93       45           4
    93       58           2
    93       63           2
    93       86           0
    93       90           4
    94       12           1
    94       28           3
    94       60           2
    94       65           2
    94       68           4
    94       73           0
    94       80           3
    94       86           1
    94       92           1
    94       99           4
    95       11           0
    95       12           3
    95       21           1
    95       22           0
    95       29           2
    95       63           2
    95       66           0
    95       69           3
    95       70           4
    95       77           1
    95       78           2
    95       79           2
    95       97           2
    95       99           3
    96        4           0
    96       13           2
    96       17           2
    96       24           2
    96       33           1
    96       57           0
    96       62           0
    96       65           3
    96       73           3
    96       82           0
    96       89           2
    96       97           3
    96       99           2
    97        1           3
    97       24           4
    97       54           2
    97       59           1
    97       66           0
    97       68           1
    97       79           3
    97       85           4
    97       93           2
    98        5           0
    98       11           2
    98       12           0
    98       19           4
    98       23           1
    98       29           4
    98       35           3
    98       47           1
    98       66           4
    98       85           3
    98       92           1
    99       16           4
    99       82           2
    99       85           0
    99       93           0
   100        1           4
   100       12           0
   100       34           1
   100       40           0
   100       47           1
   100       58           1
   100       72           0
   100       81           0
   100       88           1
   100       89           2
   100       90           4
   100       93           4
